100
100
3000 3000 3000 3000 3000 3000 3000 3000 3000 3000 3000 3000 3000 3000 3000 3000 3000 3000 3000 3000 3000 3000 3000 3000 3000 3000 3000 3000 3000 3000 3000 3000 3000 3000 3000 3000 3000 3000 3000 3000 3000 3000 3000 3000 3000 3000 3000 3000 3000 3000 3000 3000 3000 3000 3000 3000 3000 3000 3000 3000 3000 3000 3000 3000 3000 3000 3000 3000 3000 3000 3000 3000 3000 3000 3000 3000 3000 3000 3000 3000 3000 3000 3000 3000 3000 3000 3000 3000 3000 3000 3000 3000 3000 3000 3000 3000 3000 3000 3000 3000
0 0 3
0 2 4
0 8 4
0 18 2
0 28 3
0 32 2
0 41 4
0 44 2
0 46 4
0 57 2
0 76 1
0 84 0
0 90 3
0 94 3
1 51 4
1 62 2
1 90 2
1 94 0
2 8 0
2 11 1
2 17 0
2 38 2
2 43 1
2 51 1
2 52 2
2 60 0
2 68 0
2 70 3
2 71 4
2 76 0
2 86 1
2 89 2
2 90 0
2 91 4
2 99 1
3 9 1
3 29 4
3 43 4
3 60 0
3 61 1
3 66 1
3 72 1
3 79 4
3 93 0
4 7 3
4 10 1
4 12 2
4 13 1
4 18 3
4 24 1
4 30 2
4 34 1
4 35 3
4 53 0
4 62 3
4 66 1
4 86 1
4 95 4
5 8 1
5 33 3
5 43 0
5 54 2
5 55 3
5 64 2
5 75 1
5 76 3
5 80 0
5 84 1
6 10 1
6 16 1
6 23 3
6 27 1
6 28 4
6 29 1
6 37 3
6 57 2
6 71 0
6 80 2
6 98 4
7 3 0
7 7 0
7 28 4
7 35 2
7 77 4
7 82 4
7 92 2
8 2 1
8 46 4
8 50 1
8 58 4
8 59 2
8 75 3
8 82 3
8 83 0
8 87 0
8 88 2
8 93 1
9 40 4
9 66 2
9 80 0
9 87 4
10 1 2
10 4 4
10 23 2
10 28 3
10 48 1
10 63 1
10 71 1
10 86 0
10 98 0
11 11 2
11 37 1
11 44 2
11 58 4
11 78 4
11 84 4
11 86 2
12 14 3
12 43 0
12 54 0
12 59 3
12 64 0
12 72 4
12 76 0
12 81 0
12 92 4
13 10 0
13 14 2
13 40 2
13 47 1
13 51 2
13 89 4
13 93 0
14 3 3
14 15 1
14 16 2
14 17 4
14 18 3
14 19 3
14 20 2
14 35 4
14 38 4
14 39 2
14 45 3
14 64 1
14 75 0
14 95 1
15 1 2
15 16 1
15 17 2
15 30 4
15 38 4
15 74 2
15 75 4
15 95 2
16 6 3
16 18 0
16 19 4
16 34 4
16 38 0
16 58 4
16 59 2
16 61 2
16 67 2
16 79 2
16 80 2
16 84 2
16 87 0
16 93 0
17 1 1
17 3 3
17 4 2
17 23 1
17 35 3
17 48 4
17 62 1
17 66 4
17 67 1
17 70 2
17 81 3
17 91 4
17 97 2
18 6 3
18 23 3
18 31 1
18 49 1
18 50 1
18 55 0
18 56 4
18 59 0
18 71 3
18 74 2
19 0 0
19 8 1
19 17 0
19 30 1
19 37 0
19 42 0
19 47 0
19 50 4
19 54 4
19 60 3
19 67 1
19 70 4
19 73 2
19 91 0
19 99 0
20 13 4
20 25 1
20 30 2
20 52 4
20 63 2
20 71 3
20 77 1
20 83 2
20 86 2
21 19 1
21 22 3
21 42 1
21 47 2
21 60 2
21 67 3
21 72 1
21 77 1
22 0 0
22 8 3
22 11 3
22 21 2
22 23 0
22 37 3
22 45 3
22 55 0
22 65 1
22 71 4
22 73 3
22 76 1
22 77 1
22 86 4
22 87 1
22 88 4
23 5 4
23 10 4
23 13 3
23 15 1
23 22 0
23 24 0
23 40 2
23 49 3
23 59 4
23 61 0
23 69 0
23 78 0
23 84 3
23 94 3
24 9 3
24 17 4
24 24 2
24 27 3
24 36 1
24 41 4
24 42 4
24 44 1
24 47 3
24 49 3
24 50 2
24 56 2
24 72 4
24 80 2
24 82 2
25 0 0
25 7 4
25 9 0
25 18 0
25 24 0
25 47 4
25 51 1
25 57 2
25 59 1
25 67 4
25 72 1
25 93 0
25 99 4
26 11 4
26 35 4
26 36 3
26 38 4
26 39 1
26 84 4
26 90 1
26 94 1
27 1 1
27 6 0
27 9 4
27 13 4
27 22 1
27 27 0
27 42 3
27 48 3
27 55 0
27 80 3
27 93 2
27 96 0
28 2 0
28 10 3
28 26 3
28 32 0
28 33 1
28 47 3
28 65 3
28 81 0
28 95 2
28 98 1
29 5 1
29 26 4
29 32 3
29 34 0
29 43 0
29 58 2
29 85 4
29 92 0
29 97 3
29 99 3
30 3 0
30 5 1
30 6 0
30 14 0
30 21 4
30 22 3
30 31 1
30 33 2
30 45 0
30 46 1
30 49 1
30 54 3
30 56 3
30 68 4
30 75 2
30 85 3
30 97 4
31 16 1
31 21 2
31 23 4
31 33 1
31 35 3
31 65 1
31 71 2
32 14 3
32 30 3
32 31 4
32 33 2
32 43 2
32 64 2
32 68 0
32 69 4
32 70 3
32 92 1
33 26 0
33 34 0
33 35 4
33 40 4
33 53 4
33 57 0
33 70 4
33 78 1
33 82 0
34 33 1
34 56 4
34 77 3
34 92 3
35 1 4
35 6 1
35 16 3
35 19 1
35 39 3
35 46 3
35 74 4
35 78 4
35 81 4
35 86 4
35 90 3
35 93 1
36 0 4
36 2 1
36 19 2
36 40 1
36 50 3
36 53 2
36 58 4
36 66 1
36 74 4
36 80 1
36 81 1
36 83 1
36 85 4
36 89 4
37 7 0
37 30 4
37 83 1
37 96 4
38 7 4
38 25 0
38 43 0
38 44 0
38 45 0
38 52 0
38 77 0
38 78 2
38 86 4
38 95 1
39 12 1
39 16 0
39 20 4
39 26 1
39 30 3
39 34 4
39 42 0
39 53 2
39 63 3
39 64 3
39 96 1
40 12 1
40 16 2
40 19 3
40 36 1
40 39 2
40 50 2
40 51 0
40 61 2
40 69 0
40 99 3
41 72 2
41 74 1
41 76 0
41 82 3
41 89 2
41 90 1
41 92 0
41 98 4
42 12 0
42 19 2
42 31 2
42 41 4
42 42 3
42 53 4
42 59 2
42 72 2
42 95 4
42 97 1
42 98 2
43 5 1
43 14 2
43 21 4
43 23 3
43 25 3
43 27 1
43 29 2
43 30 4
43 31 3
43 33 2
43 50 1
43 56 3
43 70 1
43 96 4
43 98 4
44 0 1
44 3 3
44 25 4
44 51 3
44 54 4
44 76 0
44 81 3
44 85 0
44 88 2
44 91 0
44 97 1
45 2 1
45 7 1
45 18 4
45 45 1
45 53 1
45 58 1
45 61 1
45 77 0
46 8 1
46 9 1
46 90 2
46 93 1
46 95 4
47 18 1
47 21 1
47 34 1
47 38 2
47 56 4
47 68 1
47 73 0
47 88 4
47 95 2
48 4 2
48 11 4
48 36 2
48 40 1
48 54 4
48 61 2
48 62 2
48 69 2
48 89 2
48 95 4
49 24 1
49 26 1
49 31 0
49 54 3
49 59 1
49 84 4
49 85 3
49 86 3
49 91 0
50 16 2
50 22 1
50 23 0
50 36 3
50 46 4
50 51 2
50 52 4
50 55 3
50 61 4
50 65 3
50 69 4
50 72 4
50 91 2
51 7 1
51 21 4
51 29 3
51 36 0
51 46 4
51 60 1
51 62 3
51 65 0
51 82 2
51 89 3
51 94 1
52 6 4
52 32 1
52 36 2
52 37 0
52 38 3
52 48 3
52 64 2
52 65 0
52 67 3
52 68 2
52 73 2
52 78 4
52 91 3
52 94 4
52 96 0
53 11 0
53 27 2
53 29 0
53 38 3
53 51 2
53 61 0
53 64 3
53 87 0
54 1 1
54 8 0
54 15 1
54 48 2
54 50 2
54 52 2
54 53 1
54 57 4
54 69 2
55 2 0
55 11 4
55 20 2
55 52 4
55 73 1
55 88 1
56 4 3
56 10 0
56 12 0
56 18 3
56 65 4
56 75 3
56 81 3
56 82 4
56 90 3
57 1 3
57 7 1
57 20 4
57 32 4
57 39 1
57 42 2
57 45 2
57 63 2
57 77 1
57 79 4
57 94 2
58 1 1
58 10 4
58 14 3
58 18 4
58 20 1
58 25 2
58 26 3
58 29 0
58 35 3
58 40 2
58 58 1
58 63 3
58 66 0
58 77 4
58 82 1
58 92 1
59 2 3
59 4 4
59 8 0
59 9 3
59 25 3
59 26 3
59 40 3
59 49 3
59 55 1
59 57 3
60 6 0
60 18 3
60 20 4
60 21 1
60 27 2
60 44 0
60 55 3
60 64 1
60 76 0
60 83 3
60 87 0
61 4 1
61 25 1
61 27 4
61 53 0
61 60 4
61 81 1
62 48 3
62 53 2
62 61 3
62 63 3
62 68 3
62 71 2
62 72 3
62 88 2
63 15 3
63 32 1
63 62 3
63 74 3
63 78 3
63 80 2
63 96 2
63 97 2
64 2 4
64 16 2
64 20 4
64 22 3
64 27 1
64 30 2
64 47 4
64 51 2
64 58 1
64 66 2
64 80 4
64 97 4
65 19 4
65 25 1
65 43 2
65 46 1
65 52 0
65 65 2
65 73 0
65 76 0
65 79 1
65 84 0
65 88 2
66 4 3
66 24 2
66 28 3
66 32 4
66 40 3
66 54 0
66 56 0
66 81 2
66 94 0
67 13 3
67 19 4
67 20 0
67 26 1
67 35 2
67 38 0
67 39 3
67 67 3
67 69 1
67 70 2
67 87 2
67 96 0
67 98 3
68 6 0
68 8 4
68 9 0
68 10 2
68 13 4
68 35 2
68 37 0
68 64 0
68 73 3
68 74 1
68 80 2
68 87 1
68 99 0
69 15 4
69 17 0
69 34 2
69 49 3
69 56 0
69 73 1
69 74 2
69 91 4
70 2 0
70 7 4
70 13 0
70 23 1
70 44 2
70 47 4
70 69 1
70 88 2
70 89 4
70 99 2
71 3 1
71 12 4
71 33 4
71 46 2
71 49 2
71 77 3
71 83 4
71 84 4
71 95 0
71 99 4
72 11 4
72 15 1
72 28 1
72 40 3
72 41 2
72 45 1
72 50 2
72 51 0
72 52 3
72 53 3
72 55 0
72 58 4
72 66 0
72 72 2
72 91 3
73 9 2
73 12 4
73 21 2
73 31 1
73 48 1
73 66 4
73 69 4
73 70 4
73 83 2
73 92 3
74 3 4
74 6 3
74 12 4
74 24 4
74 28 0
74 29 4
74 34 1
74 37 1
74 39 0
74 59 3
74 60 4
74 63 4
74 96 2
75 7 2
75 43 3
75 63 4
75 67 4
75 75 4
76 45 0
76 68 3
76 82 3
76 85 1
76 97 0
76 98 0
77 12 4
77 17 2
77 20 2
77 46 0
77 56 2
77 70 3
77 75 2
78 5 2
78 8 3
78 41 3
78 42 4
78 55 1
78 58 0
78 60 1
78 62 4
78 83 0
78 92 1
78 94 4
78 99 2
79 3 4
79 12 3
79 13 2
79 31 4
79 32 2
79 52 4
79 62 2
79 85 2
79 97 2
80 4 2
80 5 0
80 17 1
80 24 2
80 38 4
80 48 4
80 63 1
80 64 2
80 93 0
81 17 1
81 20 1
81 37 1
81 54 2
81 55 2
81 78 0
81 82 2
81 87 2
81 91 3
82 0 0
82 10 4
82 27 2
82 34 0
82 42 3
82 47 4
82 57 0
82 60 0
82 62 2
82 96 3
83 26 1
83 41 0
83 44 0
83 75 2
83 96 3
84 4 0
84 21 3
84 31 2
84 39 4
84 41 4
84 43 0
84 47 2
84 60 3
84 73 3
84 76 4
84 78 2
84 79 0
84 83 4
85 3 3
85 5 4
85 15 2
85 17 0
85 33 1
85 56 2
85 66 1
85 78 2
85 85 2
85 89 4
86 1 4
86 14 3
86 24 1
86 46 1
86 61 2
86 65 2
86 73 3
86 75 1
86 85 1
86 98 1
87 0 4
87 6 3
87 36 1
87 68 1
87 85 1
87 89 0
88 5 3
88 16 3
88 22 3
88 29 3
88 30 4
88 31 1
88 44 1
88 52 2
88 79 4
88 90 4
88 92 3
88 97 3
89 1 4
89 10 1
89 14 1
89 25 4
89 41 0
89 44 3
89 45 3
89 54 0
89 79 3
89 86 2
90 2 4
90 13 3
90 14 3
90 22 1
90 34 0
90 49 2
90 79 0
90 84 2
90 88 1
90 94 0
91 5 0
91 37 0
91 49 2
91 59 1
91 70 1
92 15 4
92 32 0
92 48 1
92 62 2
92 67 0
92 81 4
92 89 1
93 0 2
93 11 3
93 22 4
93 25 3
93 27 0
93 28 0
93 29 2
93 33 1
93 42 3
93 50 3
93 74 2
93 90 0
93 99 0
94 15 0
94 21 4
94 22 4
94 28 0
94 36 2
94 39 4
94 57 1
94 68 2
94 71 4
94 74 4
94 79 0
94 83 1
94 87 4
94 88 2
95 11 1
95 15 0
95 23 1
95 26 1
95 39 0
95 44 1
95 45 4
95 65 2
95 67 2
95 71 4
95 98 2
96 0 1
96 5 2
96 9 4
96 13 4
96 14 1
96 24 2
96 41 3
96 49 0
96 57 3
96 63 0
96 68 1
96 69 2
97 9 3
97 29 2
97 37 4
97 41 4
98 32 0
98 36 3
98 48 3
98 79 1
98 93 3
99 3 3
99 4 4
99 19 0
99 28 3
99 57 2
